Minimize

10.0 x_0 + 3.0 x_1 + 1.5 x_2 + 5.0 x_3


Subject To

a0: 0 x_0 + 1 x_0 + 1 x_0 + 1 x_0 + 1 x_0 + 0 x_1 + 1 x_1 + 0 x_1 + 0 x_1 + 1 x_1 + 0 x_2 + 0 x_2 + 0 x_2 + 0 x_2 + 0 x_2 + 0 x_3 + 0 x_3 + 0 x_3 + 0 x_3 + 0 x_3 = 5




Binary

x_0 x_1 x_2 x_3 y_0 y_1

 


End
